&GLOBAL
  ! the project name is made part of most output files... useful to keep order
  PROJECT WATER
  ! various runtypes (energy, geo_opt, etc.) available.
  RUN_TYPE MD
  ! reduce the amount of IO
  PRINT_LEVEL  LOW
&END GLOBAL

&FORCE_EVAL
  ! the electronic structure part of CP2K is named Quickstep
  METHOD Quickstep
  &DFT
    ! basis sets and pseudopotential files can be found in cp2k/data
    BASIS_SET_FILE_NAME BASIS_SET
    POTENTIAL_FILE_NAME POTENTIAL

    ! Charge and multiplicity
    CHARGE 0
    MULTIPLICITY 1

    &MGRID
       ! PW cutoff ... depends on the element (basis) too small cutoffs lead to the eggbox effect.
       ! certain calculations (e.g. geometry optimization, vibrational frequencies,
       ! NPT and cell optimizations, need higher cutoffs)
       CUTOFF [Ry] 340
       REL_CUTOFF 50
    &END MGRID

    &QS
       ! use the GPW method (i.e. pseudopotential based calculations with the Gaussian and Plane Waves scheme).
       METHOD GPW
       ! default threshold for numerics ~ roughly numerical accuracy of the total energy per electron,
       ! sets reasonable values for all other thresholds.
       EPS_DEFAULT 1.0E-10
       ! used for MD, the method used to generate the initial guess.
       EXTRAPOLATION ASPC
    &END

    &POISSON
       PERIODIC XYZ ! the default, gas phase systems should have 'NONE' and a wavelet solver
    &END

    ! use the OT METHOD for robust and efficient SCF, suitable for all non-metallic systems.
    &SCF
      SCF_GUESS ATOMIC ! can be used to RESTART an interrupted calculation
      MAX_SCF 30
      EPS_SCF 1.0E-6 ! accuracy of the SCF procedure typically 1.0E-6 - 1.0E-7
      &OT
        ! an accurate preconditioner suitable also for larger systems
        PRECONDITIONER FULL_ALL
        ! the most robust choice (DIIS might sometimes be faster, but not as stable).
        MINIMIZER DIIS
      &END OT
      &OUTER_SCF ! repeat the inner SCF cycle 10 times
        MAX_SCF 10
        EPS_SCF 1.0E-6 ! must match the above
      &END
      ! do not store the wfn during MD
      &PRINT
        &RESTART OFF
        &END
      &END
    &END SCF


    ! specify the exchange and correlation treatment
    &XC
      ! use a BLYP functional
      &XC_FUNCTIONAL BLYP
      &END XC_FUNCTIONAL
    &END XC

    &PRINT
       ! at the end of the SCF procedure generate cube files of the density
       &E_DENSITY_CUBE OFF
       &END E_DENSITY_CUBE
     &END PRINT
    &END DFT

  ! description of the system
  &SUBSYS
    &CELL
      ! unit cells that are orthorhombic are more efficient with CP2K
      ABC [angstrom] 12.42 12.42 12.42
    &END CELL

    ! atom coordinates can be in the &COORD section,
    ! or provided as an external file.
    &TOPOLOGY
      COORD_FILE_NAME water.xyz
      COORD_FILE_FORMAT XYZ
    &END

    &KIND H
      BASIS_SET DZVP-GTH-BLYP
      POTENTIAL GTH-BLYP-q1
    &END KIND
    &KIND O
      BASIS_SET DZVP-GTH-BLYP
      POTENTIAL GTH-PBE-q6
    &END KIND
  &END SUBSYS
&END FORCE_EVAL

! how to propagate the system, selection via RUN_TYPE in the &GLOBAL section
&MOTION
 &MD
   ENSEMBLE NVT  ! sampling the canonical ensemble, accurate properties might need NVE
   TEMPERATURE [K] 300
   TIMESTEP [fs] 0.5
   STEPS 1000
   &THERMOSTAT
     TYPE CSVR
     &CSVR
      TIMECON 1.0
     &END CSVR
   &END THERMOSTAT
 &END MD
 &PRINT
  &TRAJECTORY
    &EACH
      MD 10
    &END EACH
  &END TRAJECTORY
  &VELOCITIES OFF
  &END VELOCITIES
  &FORCES OFF
  &END FORCES
  &RESTART_HISTORY
    &EACH
      MD 5000
    &END EACH
  &END RESTART_HISTORY
  &RESTART
    BACKUP_COPIES 3
    &EACH
      MD 10
    &END EACH
  &END RESTART
 &END PRINT
&END MOTION
!&EXT_RESTART
!  RESTART_FILE_NAME WATER-1.restart
!&END
